
  21    0


   0  12 2 3 4 5 6 8 9 10 17 18 19 20 
   4   4 16 14 12 7 
   2   2 15 11 
  10   2 14 11 
   4   2 13 11 
   5   2 12 11 
   1   1 11 
   2   1 13 
   7   1 12 
   9   1 11 
   7   1 21
   8   1 21
   7   1 21
   6   1 21
   3   1 21
  10   1 21
   5   1 21
   7   1 21
   1   1 21
  10   1 21
   0   0 
